
Gurobi 13.0.1 (linux64) logging started Sun Mar 22 07:36:13 2026

Set parameter LogFile to value "logs/100B_6F_robust_gamma_0d75_theta_0d05199999999999999_2026-03-22_07h34m23s.log"
Set parameter MIPGap to value 0.005
Set parameter OptimalityTol to value 0.005
Gurobi Optimizer version 13.0.1 build v13.0.1rc0 (linux64 - "openSUSE Tumbleweed")

CPU model: Intel(R) Core(TM) i7-10610U CPU @ 1.80GHz, instruction set [SSE2|AVX|AVX2]
Thread count: 4 physical cores, 8 logical processors, using up to 8 threads

Non-default parameters:
TimeLimit  3600
SoftMemLimit  12
MIPGap  0.005
OptimalityTol  0.005

Optimize a model with 120301 rows, 3061121 columns and 9258486 nonzeros (Max)
Model fingerprint: 0x7820473a
Model has 2970111 linear objective coefficients
Variable types: 31121 continuous, 3030000 integer (3030000 binary)
Coefficient statistics:
  Matrix range     [3e-05, 1e+05]
  Objective range  [1e+00, 3e+03]
  Bounds range     [1e+00, 1e+05]
  RHS range        [1e+00, 1e+05]

Presolve removed 78617 rows and 2622635 columns
Presolve time: 2.42s
Presolved: 41684 rows, 438486 columns, 1406966 nonzeros
Variable types: 10841 continuous, 427645 integer (427645 binary)
Found heuristic solution: objective -4.57980e+08
Performing another presolve...
Presolve added 0 rows and 10 columns
Presolve removed 20 rows and 0 columns
Presolve time: 3.04s
Deterministic concurrent LP optimizer: primal simplex, dual simplex, and barrier
Showing barrier log only...

Root barrier log...

Ordering time: 1.36s

Barrier statistics:
 AA' NZ     : 7.117e+05
 Factor NZ  : 5.968e+06 (roughly 240 MB of memory)
 Factor Ops : 1.661e+09 (less than 1 second per iteration)
 Threads    : 2

                  Objective                Residual
Iter       Primal          Dual         Primal    Dual     Compl     Time
   0  -3.11014643e+12  1.78674741e+09  5.97e+07 1.02e+03  2.09e+07    12s
   1  -3.94182244e+11  5.35842439e+09  7.59e+06 2.93e-11  2.73e+06    12s
   2  -1.35067676e+10  3.27336889e+09  2.59e+05 4.37e-11  9.66e+04    12s
   3  -2.01449307e+08  2.45457156e+09  5.51e+03 3.50e-11  4.62e+03    13s
   4   1.74437749e+08  1.17749103e+09  1.08e+03 3.66e-11  1.36e+03    13s
   5   2.28225099e+08  8.15858639e+08  4.84e+02 4.39e-11  7.53e+02    13s
   6   2.59248751e+08  4.29195010e+08  1.33e+02 3.18e-11  2.14e+02    14s
   7   2.66847250e+08  3.27272550e+08  5.48e+01 6.14e-11  7.65e+01    14s
   8   2.70240541e+08  3.05086553e+08  2.25e+01 4.99e-10  4.24e+01    14s
   9   2.71615265e+08  2.85603849e+08  1.15e+01 3.72e-10  1.71e+01    15s
  10   2.72451377e+08  2.79082263e+08  5.23e+00 3.75e-10  7.91e+00    15s
  11   2.73008840e+08  2.75923130e+08  1.15e+00 3.30e-10  3.31e+00    15s
  12   2.73138945e+08  2.74534771e+08  5.11e-01 6.95e-10  1.56e+00    15s
  13   2.73252162e+08  2.73946788e+08  2.10e-01 5.17e-10  7.75e-01    16s
  14   2.73316932e+08  2.73731795e+08  1.07e-01 4.15e-10  4.63e-01    16s
  15   2.73348364e+08  2.73568715e+08  6.30e-02 4.27e-10  2.46e-01    16s
  16   2.73382870e+08  2.73497609e+08  1.94e-02 4.28e-10  1.28e-01    17s
  17   2.73396919e+08  2.73443901e+08  5.57e-03 3.84e-10  5.23e-02    17s
  18   2.73400066e+08  2.73433884e+08  3.10e-03 4.07e-10  3.77e-02    17s
  19   2.73401523e+08  2.73424698e+08  1.90e-03 5.19e-10  2.58e-02    18s
  20   2.73402165e+08  2.73420671e+08  1.50e-03 5.04e-10  2.06e-02    18s
  21   2.73402815e+08  2.73419580e+08  1.12e-03 5.37e-10  1.87e-02    18s
  22   2.73403518e+08  2.73413951e+08  7.07e-04 4.90e-10  1.16e-02    19s
  23   2.73404002e+08  2.73411597e+08  4.69e-04 4.70e-10  8.46e-03    19s
  24   2.73404401e+08  2.73409796e+08  2.87e-04 4.54e-10  6.01e-03    19s
  25   2.73404642e+08  2.73408733e+08  1.85e-04 4.99e-10  4.56e-03    20s
  26   2.73404747e+08  2.73407987e+08  1.47e-04 6.20e-10  3.61e-03    20s
  27   2.73404942e+08  2.73407188e+08  7.71e-05 4.82e-10  2.50e-03    20s
  28   2.73405044e+08  2.73406628e+08  3.82e-05 4.63e-10  1.76e-03    21s
  29   2.73405087e+08  2.73406093e+08  2.45e-05 4.08e-10  1.12e-03    21s
  30   2.73405125e+08  2.73405883e+08  1.52e-05 4.16e-10  8.44e-04    21s
  31   2.73405137e+08  2.73405643e+08  1.23e-05 4.11e-10  5.63e-04    22s
  32   2.73405156e+08  2.73405542e+08  8.12e-06 4.85e-10  4.30e-04    22s
  33   2.73405165e+08  2.73405440e+08  5.84e-06 4.09e-10  3.06e-04    22s
  34   2.73405178e+08  2.73405394e+08  3.33e-06 4.87e-10  2.41e-04    23s
  35   2.73405182e+08  2.73405309e+08  1.92e-06 4.25e-10  1.41e-04    23s
  36   2.73405188e+08  2.73405268e+08  1.11e-06 4.14e-10  8.94e-05    23s
  37   2.73405189e+08  2.73405262e+08  9.11e-07 4.70e-10  8.14e-05    24s
  38   2.73405192e+08  2.73405254e+08  5.45e-07 5.27e-10  6.90e-05    24s
  39   2.73405193e+08  2.73405234e+08  4.56e-07 5.34e-10  4.57e-05    24s
  40   2.73405194e+08  2.73405219e+08  2.72e-07 4.58e-10  2.80e-05    24s
  41   2.73405196e+08  2.73405207e+08  1.51e-07 3.75e-10  1.25e-05    25s
  42   2.73405197e+08  2.73405201e+08  6.35e-08 3.95e-10  4.49e-06    25s
  43   2.73405197e+08  2.73405199e+08  1.40e-08 3.79e-10  1.94e-06    26s
  44   2.73405197e+08  2.73405198e+08  3.56e-08 4.20e-10  9.36e-07    26s
  45   2.73405198e+08  2.73405198e+08  6.50e-09 4.05e-10  3.45e-07    26s
  46   2.73405198e+08  2.73405198e+08  4.95e-09 4.13e-10  1.32e-07    27s
  47   2.73405198e+08  2.73405198e+08  6.13e-09 2.75e-10  2.10e-08    27s
  48   2.73405198e+08  2.73405198e+08  1.29e-08 2.71e-10  3.28e-09    27s

Barrier solved model in 48 iterations and 27.13 seconds (18.96 work units)
Optimal objective 2.73405198e+08


Root crossover log...

   14311 DPushes remaining with DInf 0.0000000e+00                27s
       0 DPushes remaining with DInf 0.0000000e+00                28s

    9675 PPushes remaining with PInf 6.6522316e-03                28s
       0 PPushes remaining with PInf 0.0000000e+00                28s

  Push phase complete: Pinf 0.0000000e+00, Dinf 1.4472943e+05     28s


Root simplex log...

Iteration    Objective       Primal Inf.    Dual Inf.      Time
   23580    2.7340520e+08   0.000000e+00   1.447289e+05     28s
   27821    2.7340520e+08   0.000000e+00   4.642718e+04     30s
   30169    2.7340520e+08   0.000000e+00   0.000000e+00     32s
Crossover time: 4.38 seconds (2.37 work units)
Concurrent spin time: 0.84s

Solved with barrier

Root relaxation: objective 2.734052e+08, 30169 iterations, 23.50 seconds (13.13 work units)
Total elapsed time = 32.42s (DegenMoves)

    Nodes    |    Current Node    |     Objective Bounds      |     Work
 Expl Unexpl |  Obj  Depth IntInf | Incumbent    BestBd   Gap | It/Node Time

     0     0 2.7341e+08    0 7367 -4.580e+08 2.7341e+08   160%     -   33s
H    0     0                    1.322139e+08 2.7341e+08   107%     -   35s
H    0     0                    2.174436e+08 2.7341e+08  25.7%     -   35s
H    0     0                    2.321627e+08 2.7341e+08  17.8%     -   36s
H    0     0                    2.346306e+08 2.7341e+08  16.5%     -   37s
H    0     0                    2.348048e+08 2.7341e+08  16.4%     -   42s
H    0     0                    2.575394e+08 2.7341e+08  6.16%     -   48s
H    0     0                    2.575419e+08 2.7341e+08  6.16%     -   51s
     0     0 2.7340e+08    0 9297 2.5754e+08 2.7340e+08  6.16%     - 1068s
H    0     0                    2.575433e+08 2.7340e+08  6.16%     - 1079s
H    0     0                    2.577346e+08 2.7340e+08  6.08%     - 1115s
H    0     0                    2.577396e+08 2.7340e+08  6.08%     - 1171s
H    0     0                    2.577397e+08 2.7340e+08  6.08%     - 1399s
H    0     0                    2.577457e+08 2.7340e+08  6.08%     - 2194s
H    0     0                    2.577459e+08 2.7340e+08  6.08%     - 2245s
     0     0 2.7340e+08    0 9012 2.5775e+08 2.7340e+08  6.08%     - 2294s
     0     0 2.7340e+08    0 9145 2.5775e+08 2.7340e+08  6.08%     - 3389s
H    0     0                    2.583464e+08 2.7340e+08  5.83%     - 3423s
H    0     0                    2.583920e+08 2.7340e+08  5.81%     - 3426s
H    0     0                    2.584401e+08 2.7340e+08  5.79%     - 3434s
     0     0 2.7340e+08    0 9170 2.5844e+08 2.7340e+08  5.79%     - 3489s
     0     0 2.7340e+08    0 9336 2.5844e+08 2.7340e+08  5.79%     - 3570s
     0     0          -    0      2.5844e+08 2.7340e+08  5.79%     - 3600s

Cutting planes:
  MIR: 6
  Flow cover: 42
  RLT: 2751
  Relax-and-lift: 58

Explored 1 nodes (780035 simplex iterations) in 3600.25 seconds (4600.10 work units)
Thread count was 8 (of 8 available processors)

Solution count 10: 2.5844e+08 2.5844e+08 2.58392e+08 ... 2.57543e+08

Time limit reached
Warning: max constraint violation (1.5036e-06) exceeds tolerance
Best objective 2.584400626574e+08, best bound 2.734044245013e+08, gap 5.7903%
